# AKT, AP1, ATF2, ATM, Apoptosis, BCL2, CREB, DNA_damage, DUSP1, EGFR, EGFR_stimulus, ELK1, ERK, FGFR3, FGFR3_stimulus, FOS, FOXO3, FRS2, GAB1, GADD45, GRB2, Growth_Arrest, JNK, JUN, MAP3K1_3, MAX1, MDM2, MEK1_2, MSK, MTK1, MYC, PDK1, PI3K, PKC, PLCG, PPP2CA, PTEN, Proliferation, RAF, RAS, RSK, SMAD, SOS, SPRY, TAK1, TAOK, TGFBR, TGFBR_stimulus, p14, p21, p38, p53, p70

.v 53

# AKT
.n 1 2 32 37
-1 0
0- 0
10 1

# AP1
.n 2 3 3 16 24
00- 0
--0 0
-11 1
1-1 1

# ATF2
.n 3 2 23 51
00 0
-1 1
1- 1

# ATM
.n 4 1 8
0 0
1 1

# Apoptosis
.n 5 4 6 13 17 52
---0 0
--0- 0
-1-- 0
1--- 0
0011 1

# BCL2
.n 6 2 1 7
-0 0
0- 0
11 1

# CREB
.n 7 1 29
0 0
1 1

# DNA_damage
.n 8 1 8
0 0
1 1

# DUSP1
.n 9 1 7
0 0
1 1

# EGFR
.n 10 4 11 21 34 44
0--0 0
--1- 0
-1-- 0
-001 1
100- 1

# EGFR_stimulus
.n 11 1 11
0 0
1 1

# ELK1
.n 12 3 13 23 51
000 0
--1 1
-1- 1
1-- 1

# ERK
.n 13 1 28
0 0
1 1

# FGFR3
.n 14 3 15 21 34
--1 0
-1- 0
0-- 0
100 1

# FGFR3_stimulus
.n 15 1 15
0 0
1 1

# FOS
.n 16 4 7 12 13 41
00-- 0
---0 0
--0- 0
-111 1
1-11 1

# FOXO3
.n 17 2 1 23
-0 0
1- 0
01 1

# FRS2
.n 18 3 14 21 44
--1 0
-1- 0
0-- 0
100 1

# GAB1
.n 19 2 21 33
00 0
-1 1
1- 1

# GADD45
.n 20 2 42 52
00 0
-1 1
1- 1

# GRB2
.n 21 3 10 18 47
000 0
--1 1
-1- 1
1-- 1

# Growth_Arrest
.n 22 1 50
0 0
1 1

# JNK
.n 23 5 9 25 30 45 46
-0000 0
1-000 0
10-00 0
100-0 0
1000- 0
---11 1
--1-1 1
--11- 1
-1--1 1
-1-1- 1
-11-- 1
0---1 1
0--1- 1
0-1-- 1
01--- 1

# JUN
.n 24 1 23
0 0
1 1

# MAP3K1_3
.n 25 1 40
0 0
1 1

# MAX1
.n 26 1 51
0 0
1 1

# MDM2
.n 27 3 1 49 52
0-0 0
-1- 0
-01 1
10- 1

# MEK1_2
.n 28 4 2 25 36 39
-0-0 0
--1- 0
1--- 0
0-01 1
010- 1

# MSK
.n 29 2 13 51
00 0
-1 1
1- 1

# MTK1
.n 30 1 20
0 0
1 1

# MYC
.n 31 3 1 26 29
00- 0
--0 0
-11 1
1-1 1

# PDK1
.n 32 1 33
0 0
1 1

# PI3K
.n 33 3 19 40 43
0-0 0
00- 0
-11 1
1-- 1

# PKC
.n 34 1 35
0 0
1 1

# PLCG
.n 35 2 10 14
00 0
-1 1
1- 1

# PPP2CA
.n 36 1 51
0 0
1 1

# PTEN
.n 37 1 52
0 0
1 1

# Proliferation
.n 38 3 31 50 53
--0 0
-1- 0
0-- 0
101 1

# RAF
.n 39 4 1 13 34 40
--00 0
-1-- 0
1--- 0
00-1 1
001- 1

# RAS
.n 40 2 35 43
00 0
-1 1
1- 1

# RSK
.n 41 1 13
0 0
1 1

# SMAD
.n 42 1 47
0 0
1 1

# SOS
.n 43 2 21 41
-1 0
0- 0
10 1

# SPRY
.n 44 1 13
0 0
1 1

# TAK1
.n 45 1 47
0 0
1 1

# TAOK
.n 46 1 4
0 0
1 1

# TGFBR
.n 47 1 48
0 0
1 1

# TGFBR_stimulus
.n 48 1 48
0 0
1 1

# p14
.n 49 1 31
0 0
1 1

# p21
.n 50 2 1 52
-0 0
1- 0
01 1

# p38
.n 51 5 9 25 30 45 46
-0000 0
1-000 0
10-00 0
100-0 0
1000- 0
---11 1
--1-1 1
--11- 1
-1--1 1
-1-1- 1
-11-- 1
0---1 1
0--1- 1
0-1-- 1
01--- 1

# p53
.n 52 3 4 27 51
-10 0
0-0 0
01- 0
-01 1
1-1 1
10- 1

# p70
.n 53 2 13 32
-0 0
0- 0
11 1
